language ESSENCE' 1.0

letting jobs = 102
letting horizon = 790
letting resourcesRenew = 2
letting resourcesNonrenew = 2
letting resourceLimits = [54, 66, 517, 525]
letting successors = [[2, 3, 4, 5, 6, 7, 8, 10, 11, 12, 13, 14, 15, 16, 17, 18, 19, 20, 21, 23, 25, 26, 27, 29, 31, 32, 35, 36, 46, 48, 50, 70], [97, 68, 67, 65, 61, 57, 56, 44, 43, 42, 37, 28, 9], [101, 97, 87, 85, 69, 67, 66, 65, 61, 60, 58, 57, 56, 55, 53, 45, 44, 42, 22], [95, 91, 69, 67, 66, 65, 62, 61, 60, 56, 55, 53, 47, 45, 44, 42, 39, 22], [100, 97, 85, 69, 66, 65, 61, 57, 56, 52, 44, 43, 42, 22], [100, 98, 97, 89, 85, 68, 65, 64, 63, 61, 60, 57, 53, 51, 44, 43, 42, 38], [101, 97, 89, 85, 65, 61, 57, 52, 43, 22], [101, 93, 58, 55, 44, 42, 40, 30, 22], [101, 95, 93, 89, 87, 85, 69, 66, 60, 58, 45, 22], [98, 94, 92, 91, 89, 82, 65, 64, 63, 62, 61, 60, 57, 42, 34], [100, 95, 93, 91, 83, 68, 67, 60, 59, 24], [93, 91, 87, 85, 66, 62, 56, 55, 22], [100, 97, 94, 92, 88, 87, 85, 65, 60, 57, 55, 53, 51, 45, 42], [97, 95, 93, 90, 88, 87, 85, 79, 76, 63, 60, 56, 55, 51, 44, 42], [97, 95, 91, 90, 89, 86, 84, 82, 81, 77, 60, 43, 33], [101, 97, 95, 94, 93, 91, 89, 87, 85, 83, 82, 80, 79, 65, 63, 61, 60, 59, 55, 54, 51], [101, 98, 92, 91, 88, 87, 85, 83, 80, 76, 65, 63, 61, 60, 59, 56, 51, 45], [98, 97, 95, 93, 91, 90, 89, 88, 87, 86, 85, 84, 82, 80, 79, 77, 76, 75, 64, 63, 61, 59, 55, 51], [99, 96, 95, 93, 92, 91, 90, 89, 87, 86, 84, 83, 82, 80, 77, 67, 64, 62, 61, 60, 59, 51], [99, 97, 94, 93, 92, 91, 90, 87, 86, 85, 84, 83, 82, 81, 80, 78, 76, 75, 69, 65, 64, 59, 56], [98, 95, 93, 90, 87, 85, 83, 80, 79, 60, 59, 56, 51, 44], [99, 98, 96, 94, 92, 90, 86, 84, 83, 82, 80, 79, 77, 75, 64, 63, 59, 54, 51], [92, 91, 90, 87, 86, 85, 84, 83, 82, 79, 78, 75, 68, 67, 64, 63, 56, 54], [97, 92, 90, 87, 86, 85, 84, 82, 80, 79, 75, 65, 63, 56, 55, 54, 51], [94, 93, 86, 85, 84, 78, 77, 68, 67, 57, 56, 55, 41], [100, 98, 91, 90, 89, 88, 87, 86, 85, 83, 82, 80, 73, 66, 59, 49], [93, 90, 89, 87, 86, 85, 84, 80, 78, 73, 72, 66, 65, 57, 52], [100, 96, 93, 90, 89, 83, 82, 79, 77, 72, 66, 54, 52, 51], [94, 93, 86, 85, 81, 78, 68, 63, 56, 38], [92, 91, 90, 87, 86, 85, 84, 83, 81, 80, 79, 77, 74, 73, 54], [95, 87, 78, 77, 76, 74, 73, 67, 42], [98, 97, 91, 84, 83, 81, 80, 79, 77, 76, 73, 64, 61], [100, 94, 93, 87, 85, 83, 79, 76, 75, 73, 72, 68, 63], [97, 95, 87, 86, 85, 84, 83, 79, 77, 74, 73, 54], [90, 87, 83, 82, 80, 78, 77, 73, 72, 54], [95, 88, 80, 79, 78, 77, 76, 59, 55], [96, 90, 85, 82, 81, 80, 79, 78, 75, 74, 73, 71], [91, 84, 83, 82, 79, 74, 73, 72, 54], [97, 87, 85, 83, 82, 77, 75, 74, 73, 63], [94, 84, 78, 71, 60, 56], [92, 89, 79, 76, 75, 74, 72, 63], [96, 86, 83, 81, 80, 75, 59], [93, 92, 87, 59, 55], [96, 92, 86, 84, 82, 78, 77, 75], [90, 86, 84, 82, 75, 74, 72, 71], [90, 85, 82, 79, 76, 59], [88, 83, 79, 77, 76, 73, 71], [88, 85, 81, 78, 77, 72, 71], [96, 94, 84, 79, 72, 63], [85, 78, 76, 75, 73, 71], [81, 78, 74, 73], [94, 91, 81, 74], [93, 86, 82, 77], [88, 76, 71], [74, 73, 72], [89, 73, 72], [95, 76, 71], [91, 82, 72], [72, 71], [75, 74], [78, 71], [79, 72], [71], [74], [77], [75], [81], [80], [74], [72], [102], [102], [102], [102], [102], [102], [102], [102], [102], [102], [102], [102], [102], [102], [102], [102], [102], [102], [102], [102], [102], [102], [102], [102], [102], [102], [102], [102], [102], [102], [102], []]
letting durations = [[0], [5, 8, 10], [3, 4, 5], [1, 2, 9], [2, 9, 10], [3, 5, 7], [3, 7, 8], [4, 9, 10], [2, 9, 10], [2, 3, 7], [3, 5, 9], [5, 8, 9], [4, 6, 7], [6, 7, 9], [6, 8, 10], [1, 7, 8], [1, 3, 4], [2, 6, 7], [1, 3, 6], [6, 8, 9], [4, 7, 8], [4, 5, 6], [6, 7, 9], [6, 7, 8], [2, 3, 9], [1, 2, 3], [2, 4, 6], [7, 8, 9], [2, 3, 4], [2, 3, 10], [2, 3, 9], [1, 6, 7], [7, 8, 9], [1, 7, 8], [3, 8, 10], [3, 5, 10], [4, 5, 6], [1, 2, 8], [1, 7, 10], [2, 4, 10], [1, 2, 3], [2, 9, 10], [5, 6, 8], [1, 2, 5], [2, 3, 4], [2, 8, 10], [4, 7, 8], [2, 3, 10], [7, 8, 10], [5, 8, 10], [4, 8, 10], [7, 8, 9], [4, 5, 6], [2, 3, 8], [3, 5, 6], [3, 6, 7], [1, 3, 5], [1, 2, 5], [1, 8, 10], [6, 7, 8], [3, 6, 8], [2, 5, 7], [1, 2, 5], [5, 7, 8], [6, 7, 8], [3, 9, 10], [2, 4, 9], [1, 2, 5], [4, 8, 9], [4, 8, 9], [2, 4, 5], [7, 8, 9], [2, 5, 9], [2, 3, 6], [3, 4, 6], [2, 3, 8], [4, 7, 10], [4, 7, 10], [3, 8, 10], [2, 4, 5], [3, 4, 6], [7, 9, 10], [2, 4, 10], [3, 4, 9], [4, 5, 10], [5, 9, 10], [2, 4, 6], [1, 5, 10], [2, 8, 9], [4, 7, 8], [1, 3, 4], [6, 7, 10], [3, 9, 10], [2, 3, 9], [5, 6, 9], [1, 2, 3], [1, 2, 3], [5, 7, 8], [5, 6, 8], [7, 8, 9], [1, 6, 8], [0]]
letting resourceUsage = [[[0, 0, 0, 0]], [[7, 5, 8, 4], [5, 4, 4, 4], [5, 4, 3, 3]], [[9, 8, 6, 7], [9, 6, 4, 5], [8, 6, 3, 4]], [[6, 5, 7, 8], [6, 4, 5, 5], [4, 4, 1, 3]], [[4, 10, 9, 6], [4, 9, 9, 6], [4, 8, 9, 6]], [[4, 10, 7, 2], [4, 10, 4, 2], [1, 10, 1, 2]], [[5, 8, 10, 5], [5, 7, 8, 4], [4, 7, 5, 1]], [[5, 10, 8, 8], [5, 7, 6, 7], [5, 6, 5, 5]], [[8, 10, 7, 9], [6, 8, 7, 7], [4, 8, 5, 5]], [[3, 6, 6, 4], [1, 4, 4, 3], [1, 3, 3, 3]], [[6, 6, 6, 8], [5, 5, 5, 6], [5, 2, 5, 2]], [[7, 5, 6, 4], [3, 4, 5, 4], [3, 2, 4, 4]], [[9, 5, 1, 9], [6, 3, 1, 5], [5, 3, 1, 4]], [[5, 1, 6, 7], [2, 1, 5, 7], [1, 1, 5, 3]], [[6, 4, 6, 5], [4, 4, 5, 3], [4, 4, 3, 3]], [[4, 10, 6, 2], [2, 6, 5, 2], [1, 5, 3, 2]], [[6, 7, 6, 5], [6, 6, 5, 3], [3, 5, 4, 3]], [[7, 9, 9, 2], [7, 7, 8, 1], [7, 7, 7, 1]], [[1, 4, 3, 8], [1, 3, 2, 6], [1, 3, 2, 5]], [[8, 6, 9, 7], [7, 6, 3, 6], [7, 5, 1, 4]], [[9, 10, 4, 7], [9, 8, 4, 4], [8, 8, 4, 1]], [[4, 8, 7, 5], [3, 8, 7, 4], [2, 8, 6, 4]], [[4, 5, 8, 5], [3, 5, 8, 3], [3, 5, 8, 2]], [[8, 8, 3, 2], [8, 5, 2, 1], [8, 5, 1, 1]], [[5, 9, 8, 7], [5, 8, 8, 7], [5, 8, 8, 5]], [[6, 9, 2, 6], [6, 7, 1, 5], [6, 5, 1, 5]], [[3, 5, 4, 7], [2, 3, 4, 6], [2, 3, 4, 5]], [[1, 7, 2, 4], [1, 5, 2, 3], [1, 4, 2, 3]], [[2, 9, 10, 4], [2, 9, 8, 3], [1, 9, 5, 3]], [[10, 2, 6, 7], [9, 1, 4, 7], [9, 1, 3, 7]], [[7, 7, 6, 10], [7, 6, 6, 5], [7, 6, 4, 4]], [[5, 9, 10, 7], [4, 9, 4, 4], [4, 8, 3, 4]], [[3, 6, 5, 9], [3, 2, 4, 5], [3, 1, 2, 5]], [[10, 3, 5, 3], [8, 2, 3, 3], [8, 2, 1, 1]], [[8, 8, 7, 8], [6, 6, 7, 5], [6, 4, 7, 5]], [[5, 7, 3, 9], [5, 6, 2, 7], [3, 6, 1, 7]], [[6, 9, 7, 7], [4, 9, 3, 6], [4, 9, 3, 3]], [[6, 7, 6, 5], [5, 4, 3, 3], [1, 2, 2, 2]], [[9, 7, 9, 3], [7, 6, 7, 3], [6, 3, 6, 2]], [[9, 4, 9, 5], [7, 4, 5, 4], [4, 4, 5, 3]], [[9, 7, 6, 9], [6, 5, 6, 8], [2, 3, 4, 8]], [[9, 5, 5, 6], [7, 4, 5, 6], [5, 3, 4, 5]], [[8, 3, 10, 4], [4, 2, 5, 2], [4, 2, 2, 2]], [[6, 7, 4, 10], [4, 7, 4, 9], [4, 3, 1, 8]], [[3, 6, 5, 6], [2, 6, 4, 6], [2, 5, 3, 6]], [[9, 9, 4, 7], [9, 9, 4, 6], [7, 8, 3, 7]], [[6, 7, 7, 10], [5, 3, 3, 9], [4, 1, 3, 9]], [[10, 10, 3, 3], [8, 7, 3, 2], [6, 3, 1, 2]], [[6, 6, 7, 4], [6, 6, 6, 3], [5, 5, 4, 3]], [[6, 9, 7, 10], [3, 9, 7, 7], [2, 9, 7, 2]], [[4, 8, 7, 6], [3, 6, 6, 5], [3, 6, 6, 4]], [[1, 7, 8, 9], [1, 5, 6, 8], [1, 3, 4, 8]], [[5, 3, 9, 5], [4, 3, 6, 4], [3, 3, 4, 4]], [[4, 7, 7, 6], [4, 5, 3, 6], [3, 2, 2, 5]], [[10, 7, 9, 8], [8, 6, 8, 6], [6, 5, 7, 3]], [[6, 8, 8, 7], [2, 8, 4, 5], [1, 7, 2, 5]], [[4, 3, 9, 8], [3, 3, 9, 5], [3, 1, 8, 2]], [[10, 6, 6, 7], [10, 5, 5, 7], [10, 5, 5, 6]], [[7, 5, 2, 6], [5, 3, 1, 5], [2, 2, 1, 2]], [[9, 6, 6, 4], [6, 6, 5, 3], [4, 6, 4, 3]], [[6, 7, 4, 7], [6, 7, 3, 3], [6, 4, 2, 3]], [[9, 7, 10, 6], [6, 6, 9, 4], [6, 6, 8, 4]], [[5, 10, 8, 6], [5, 10, 6, 6], [3, 10, 5, 5]], [[4, 6, 6, 10], [3, 5, 6, 6], [1, 4, 5, 1]], [[8, 10, 5, 6], [8, 7, 4, 4], [8, 6, 4, 3]], [[9, 6, 4, 3], [6, 5, 3, 3], [5, 3, 2, 3]], [[2, 10, 7, 9], [2, 7, 6, 8], [2, 3, 6, 7]], [[3, 6, 6, 8], [2, 5, 6, 8], [2, 5, 6, 7]], [[2, 7, 5, 6], [2, 7, 5, 3], [2, 5, 4, 1]], [[6, 10, 9, 8], [6, 10, 8, 6], [6, 10, 8, 5]], [[1, 9, 7, 8], [1, 5, 5, 5], [1, 4, 5, 4]], [[1, 3, 5, 1], [1, 2, 2, 1], [1, 1, 1, 1]], [[7, 8, 3, 7], [7, 7, 2, 6], [5, 7, 2, 4]], [[9, 5, 7, 10], [8, 5, 4, 8], [8, 5, 4, 6]], [[10, 1, 2, 7], [6, 1, 1, 7], [3, 1, 1, 5]], [[5, 6, 7, 8], [4, 6, 6, 7], [3, 3, 4, 7]], [[4, 5, 8, 8], [3, 4, 8, 6], [2, 4, 5, 5]], [[8, 7, 10, 10], [5, 6, 9, 7], [3, 4, 7, 6]], [[4, 4, 6, 5], [3, 3, 3, 5], [2, 2, 3, 5]], [[3, 9, 5, 7], [3, 5, 5, 7], [3, 4, 3, 7]], [[5, 9, 3, 9], [3, 8, 2, 8], [1, 6, 2, 8]], [[2, 8, 6, 5], [1, 6, 6, 4], [1, 5, 5, 3]], [[4, 3, 6, 8], [2, 2, 6, 6], [2, 2, 6, 5]], [[7, 6, 3, 9], [5, 6, 3, 8], [4, 5, 2, 7]], [[2, 10, 7, 3], [1, 8, 6, 3], [1, 8, 4, 3]], [[5, 6, 8, 4], [4, 4, 6, 4], [3, 3, 6, 2]], [[8, 9, 8, 3], [6, 7, 8, 3], [3, 7, 8, 3]], [[7, 7, 4, 8], [6, 5, 2, 8], [6, 2, 2, 7]], [[8, 5, 4, 8], [8, 5, 4, 7], [8, 4, 4, 7]], [[7, 10, 7, 5], [5, 9, 6, 4], [5, 8, 5, 3]], [[4, 3, 7, 6], [4, 3, 7, 5], [4, 3, 7, 4]], [[4, 3, 3, 2], [3, 2, 3, 1], [1, 1, 3, 1]], [[9, 6, 2, 5], [7, 4, 2, 5], [5, 2, 1, 5]], [[8, 10, 8, 7], [7, 8, 7, 5], [6, 6, 6, 2]], [[9, 8, 8, 9], [6, 8, 7, 9], [2, 5, 6, 9]], [[9, 9, 5, 4], [9, 8, 4, 3], [7, 8, 3, 3]], [[7, 7, 8, 7], [7, 7, 5, 3], [5, 4, 5, 1]], [[3, 8, 7, 5], [2, 8, 4, 5], [2, 5, 3, 4]], [[3, 7, 9, 9], [3, 4, 7, 7], [3, 3, 6, 7]], [[5, 10, 9, 7], [4, 8, 5, 6], [1, 5, 5, 6]], [[8, 8, 9, 7], [6, 5, 9, 3], [3, 5, 9, 2]], [[0, 0, 0, 0]]]
